93 72 6 27 68 74 95 39 7 34 54 89 4 84 26 46 76 44 25 11 50 52 41 96 81 21 
2 1 22 32 61 69 98 33 35 94 58 53 59 57 14 18 40 15 16 17 73 70 47 77 78 48 8 
62 29 64 97 31 66 100 3 92 36 38 60 19 28 23 12 86 13 43 71 80 79 9 42 10 90 
63 75 5 67 24 20 30 65 49 37 56 55 88 91 83 82 85 45 51 
99 87 

